n_machines = 5;
n_resources = 8;
n_jobs = 31;
horizon = 157;
LB = 31;
n_jobs_per_resource = [4, 2, 1, 3, 4, 7, 6, 4];
duration = [5, 8, 9, 8, 1, 3, 9, 5, 9, 6, 4, 7, 8, 7, 4, 1, 7, 3, 1, 1, 6, 9, 2, 5, 9, 1, 5, 2, 9, 1, 2]